N = 12;
H = 5;
T = 2;

avail = array3d(1..N, 1..H, 1..T, [6, 2, 10, 3, 7, 1, 10, 4, 4, 9, 9, 8, 3, 8, 5, 10, 8, 5, 6, 1, 2, 6, 8, 4, 0, 3, 6, 0, 5, 1, 3, 5, 6, 9, 8, 1, 3, 4, 5, 2, 7, 7, 3, 3, 10, 0, 2, 9, 0, 10, 4, 6, 10, 3, 4, 5, 6, 10, 6, 3, 0, 1, 6, 0, 6, 8, 2, 3, 2, 9, 7, 3, 1, 3, 9, 9, 4, 1, 7, 8, 2, 4, 8, 10, 6, 0, 6, 2, 4, 0, 1, 10, 4, 2, 9, 8, 3, 5, 6, 8, 8, 2, 8, 10, 2, 7, 4, 4, 10, 6, 1, 9, 5, 1, 5, 9, 1, 2, 10, 6]);

r = array2d(1..H, 1..T, [2, 4, 6, 2, 2, 1, 2, 4, 4, 0]);
